c ! encoding i-pc 250
p cnf 936 2350
-251 0
122 -252 0
251 -253 0
251 -254 0
251 -255 0
256 0
257 -258 0
258 -259 0
159 -259 0
-179 -260 0
-159 -260 0
259 260 -261 0
162 -263 0
262 -263 0
263 -264 0
172 -264 0
89 -266 0
265 -266 0
266 -267 0
-172 -267 0
264 267 -268 0
261 -269 0
268 -269 0
269 -271 0
270 -271 0
271 -272 0
220 -272 0
162 -273 0
172 -273 0
265 -274 0
274 -275 0
-172 -275 0
273 275 -276 0
-48 -277 0
89 -277 0
-179 -277 0
276 -279 0
277 -279 0
278 -279 0
279 -280 0
-220 -280 0
272 280 -281 0
282 -283 0
283 -284 0
3 -284 0
23 -285 0
-3 -285 0
284 285 -286 0
287 -288 0
288 -289 0
69 -289 0
-60 -290 0
-69 -290 0
289 290 -291 0
21 -292 0
77 -292 0
107 -292 0
-176 -292 0
293 -295 0
294 -295 0
281 -296 0
286 -296 0
291 -296 0
292 -296 0
295 -296 0
296 -297 0
81 -297 0
286 -298 0
-176 -298 0
298 -299 0
294 -299 0
299 -300 0
107 -300 0
23 -301 0
302 -303 0
303 -304 0
-23 -304 0
301 304 -305 0
305 -306 0
3 -306 0
23 -307 0
307 -308 0
-3 -308 0
306 308 -309 0
309 -310 0
242 -310 0
310 -311 0
-107 -311 0
300 311 -312 0
77 -313 0
281 -314 0
312 -314 0
313 -314 0
293 -314 0
314 -315 0
21 -315 0
-77 -316 0
-107 -316 0
159 -316 0
179 -316 0
220 -316 0
242 -316 0
293 -317 0
270 -317 0
309 -318 0
268 -318 0
316 -318 0
317 -318 0
318 -319 0
-21 -319 0
315 319 -320 0
320 -321 0
69 -321 0
287 -321 0
321 -322 0
-81 -322 0
297 322 -323 0
-13 -324 0
-111 -324 0
113 -324 0
324 -326 0
325 -326 0
326 -328 0
327 -328 0
328 -329 0
245 -329 0
13 -330 0
111 -330 0
331 -332 0
332 -333 0
-111 -333 0
330 333 -334 0
335 -336 0
336 -337 0
52 -337 0
113 -338 0
-52 -338 0
337 338 -339 0
334 -340 0
339 -340 0
-249 -340 0
340 -341 0
-245 -341 0
329 341 -342 0
342 -343 0
155 -343 0
-13 -344 0
-111 -344 0
113 -344 0
245 -344 0
249 -344 0
344 -345 0
325 -345 0
345 -346 0
-155 -346 0
343 346 -347 0
-25 -348 0
-123 -348 0
323 -349 0
347 -349 0
348 -349 0
349 -350 0
243 -350 0
261 -351 0
220 -351 0
351 -352 0
48 -352 0
261 -353 0
220 -353 0
-179 -354 0
278 -354 0
354 -355 0
-220 -355 0
353 355 -356 0
356 -357 0
-48 -357 0
352 357 -358 0
293 -359 0
294 -359 0
358 -360 0
347 -360 0
286 -360 0
291 -360 0
292 -360 0
359 -360 0
360 -362 0
361 -362 0
362 -363 0
81 -363 0
358 -364 0
312 -364 0
313 -364 0
293 -364 0
364 -365 0
21 -365 0
293 -366 0
270 -366 0
309 -367 0
316 -367 0
366 -367 0
367 -368 0
-21 -368 0
365 368 -369 0
342 -370 0
-123 -370 0
370 -371 0
155 -371 0
344 -372 0
325 -372 0
372 -373 0
361 -373 0
373 -374 0
-155 -374 0
371 374 -375 0
369 -376 0
375 -376 0
69 -376 0
287 -376 0
376 -377 0
-81 -377 0
363 377 -378 0
89 -379 0
-172 -379 0
378 -380 0
379 -380 0
265 -380 0
380 -382 0
381 -382 0
382 -383 0
-243 -383 0
350 383 -384 0
222 -385 0
206 -385 0
386 -387 0
387 -388 0
-206 -388 0
385 388 -389 0
390 -391 0
391 -392 0
94 -392 0
-94 -393 0
392 393 -394 0
395 -396 0
396 -397 0
214 -397 0
-15 -398 0
-214 -398 0
397 398 -399 0
-2 -400 0
4 -400 0
12 -400 0
-26 -400 0
27 -400 0
-31 -400 0
32 -400 0
35 -400 0
38 -400 0
39 -400 0
-45 -400 0
-58 -400 0
-66 -400 0
-72 -400 0
-75 -400 0
76 -400 0
-79 -400 0
80 -400 0
82 -400 0
-83 -400 0
87 -400 0
-90 -400 0
91 -400 0
93 -400 0
-98 -400 0
104 -400 0
-116 -400 0
-118 -400 0
119 -400 0
129 -400 0
132 -400 0
-133 -400 0
-134 -400 0
135 -400 0
-136 -400 0
-137 -400 0
139 -400 0
-143 -400 0
-149 -400 0
-151 -400 0
-152 -400 0
-156 -400 0
160 -400 0
-161 -400 0
166 -400 0
-168 -400 0
175 -400 0
-182 -400 0
187 -400 0
189 -400 0
192 -400 0
-193 -400 0
-197 -400 0
-199 -400 0
-202 -400 0
208 -400 0
221 -400 0
-229 -400 0
233 -400 0
-240 -400 0
241 -400 0
-244 -400 0
-248 -400 0
401 -407 0
402 -407 0
403 -407 0
404 -407 0
405 -407 0
406 -407 0
384 -408 0
389 -408 0
394 -408 0
399 -408 0
400 -408 0
407 -408 0
408 -409 0
255 409 -410 0
410 -412 0
411 -412 0
412 -413 0
84 -413 0
251 -414 0
413 414 -415 0
130 -416 0
171 -416 0
415 -417 0
416 -417 0
417 -418 0
254 418 -419 0
121 -420 0
419 -421 0
420 -421 0
421 -422 0
71 -422 0
251 -423 0
251 -424 0
251 -425 0
251 -426 0
251 -427 0
13 -428 0
-245 -428 0
428 -429 0
111 -429 0
-245 -430 0
13 -430 0
431 -432 0
432 -433 0
-13 -433 0
430 433 -434 0
434 -435 0
-111 -435 0
429 435 -436 0
-26 -437 0
293 -437 0
437 -438 0
130 -438 0
142 -440 0
439 -440 0
440 -441 0
-130 -441 0
438 441 -442 0
-35 -443 0
75 -443 0
76 -443 0
82 -443 0
104 -443 0
109 -443 0
-118 -443 0
-123 -443 0
139 -443 0
241 -443 0
442 -444 0
443 -444 0
444 -446 0
395 -446 0
445 -446 0
446 -447 0
129 -447 0
-76 -449 0
448 -449 0
449 -450 0
35 -450 0
104 -452 0
451 -452 0
452 -453 0
-35 -453 0
450 453 -454 0
454 -455 0
-82 -455 0
455 -457 0
456 -457 0
457 -458 0
118 -458 0
-35 -459 0
76 -459 0
104 -459 0
241 -459 0
459 -461 0
460 -461 0
461 -462 0
-118 -462 0
458 462 -463 0
75 -464 0
109 -464 0
442 -465 0
464 -465 0
465 -466 0
139 -466 0
-26 -467 0
130 -467 0
439 -468 0
468 -469 0
-130 -469 0
467 469 -470 0
471 -472 0
472 -473 0
109 -473 0
-75 -474 0
-109 -474 0
473 474 -475 0
470 -476 0
475 -476 0
142 -476 0
476 -477 0
-139 -477 0
466 477 -478 0
15 -479 0
240 -479 0
395 -480 0
480 -481 0
-240 -481 0
479 481 -482 0
463 -483 0
478 -483 0
482 -483 0
483 -484 0
361 -484 0
484 -485 0
-129 -485 0
447 485 -486 0
-168 -487 0
262 -487 0
487 -488 0
48 -488 0
89 -489 0
168 -489 0
262 -490 0
490 -491 0
-168 -491 0
489 491 -492 0
492 -493 0
-48 -493 0
488 493 -494 0
494 -495 0
162 -495 0
495 -496 0
172 -496 0
-168 -497 0
48 -497 0
498 -499 0
499 -500 0
-48 -500 0
497 500 -501 0
501 -502 0
89 -502 0
502 -503 0
265 -503 0
503 -504 0
-172 -504 0
496 504 -505 0
-91 -506 0
179 -506 0
507 -508 0
508 -509 0
-179 -509 0
506 509 -510 0
510 -511 0
402 -511 0
511 -512 0
27 -512 0
36 -513 0
-91 -513 0
513 -514 0
257 -514 0
514 -515 0
-27 -515 0
512 515 -516 0
149 -517 0
-151 -517 0
-161 -517 0
-232 -517 0
436 -519 0
486 -519 0
505 -519 0
516 -519 0
517 -519 0
518 -519 0
519 -520 0
113 -520 0
-15 -521 0
151 -521 0
395 -522 0
522 -523 0
-151 -523 0
521 523 -524 0
208 -525 0
526 -527 0
527 -528 0
-208 -528 0
525 528 -529 0
524 -530 0
442 -530 0
529 -530 0
443 -530 0
530 -531 0
445 -531 0
531 -532 0
129 -532 0
-15 -533 0
-240 -533 0
533 -534 0
151 -534 0
482 -535 0
-151 -535 0
534 535 -536 0
293 -537 0
537 -538 0
139 -538 0
142 -539 0
-139 -539 0
538 539 -540 0
540 -541 0
-26 -541 0
541 -542 0
130 -542 0
142 -544 0
543 -544 0
544 -545 0
439 -545 0
545 -546 0
-130 -546 0
542 546 -547 0
529 -548 0
547 -548 0
109 -548 0
548 -549 0
75 -549 0
529 -550 0
109 -550 0
-232 -551 0
518 -551 0
551 -552 0
-109 -552 0
550 552 -553 0
-139 -554 0
142 -554 0
553 -555 0
470 -555 0
554 -555 0
555 -556 0
-75 -556 0
549 556 -557 0
536 -558 0
463 -558 0
557 -558 0
558 -559 0
361 -559 0
559 -560 0
-129 -560 0
532 560 -561 0
27 -562 0
89 -562 0
-149 -562 0
-172 -562 0
402 -563 0
265 -563 0
501 -564 0
510 -564 0
562 -564 0
563 -564 0
564 -565 0
161 -565 0
510 -567 0
402 -567 0
566 -567 0
567 -568 0
27 -568 0
36 -569 0
-91 -569 0
149 -569 0
569 -570 0
257 -570 0
570 -571 0
-27 -571 0
568 571 -572 0
505 -573 0
572 -573 0
573 -574 0
-161 -574 0
565 574 -575 0
561 -576 0
334 -576 0
575 -576 0
-245 -576 0
576 -577 0
-113 -577 0
520 577 -578 0
-90 -579 0
-159 -579 0
220 -579 0
578 -581 0
579 -581 0
580 -581 0
581 -583 0
582 -583 0
583 -584 0
147 -584 0
402 -585 0
507 -585 0
585 -586 0
27 -586 0
513 -587 0
-27 -587 0
586 587 -588 0
159 -589 0
-245 -589 0
334 -590 0
588 -590 0
589 -590 0
257 -590 0
590 -591 0
90 -591 0
507 -592 0
257 -592 0
592 -593 0
159 -593 0
510 -594 0
-159 -594 0
593 594 -595 0
595 -596 0
402 -596 0
596 -597 0
27 -597 0
278 -598 0
257 -598 0
513 -599 0
598 -599 0
599 -600 0
-27 -600 0
597 600 -601 0
601 -602 0
436 -602 0
602 -603 0
-90 -603 0
591 603 -604 0
-35 -605 0
75 -605 0
76 -605 0
82 -605 0
104 -605 0
109 -605 0
-118 -605 0
-123 -605 0
137 -605 0
139 -605 0
241 -605 0
442 -606 0
605 -606 0
606 -607 0
395 -607 0
445 -607 0
607 -608 0
129 -608 0
-35 -609 0
76 -609 0
104 -609 0
-118 -609 0
137 -609 0
241 -609 0
609 -610 0
82 -610 0
-76 -611 0
118 -611 0
611 -612 0
456 -612 0
612 -613 0
448 -613 0
582 -613 0
613 -614 0
35 -614 0
456 -615 0
451 -615 0
615 -616 0
118 -616 0
76 -617 0
241 -617 0
617 -618 0
-118 -618 0
616 618 -619 0
104 -620 0
137 -620 0
619 -621 0
620 -621 0
621 -622 0
-35 -622 0
614 622 -623 0
623 -624 0
-82 -624 0
610 624 -625 0
625 -626 0
478 -626 0
482 -626 0
626 -627 0
361 -627 0
627 -628 0
-129 -628 0
608 628 -629 0
505 -630 0
580 -630 0
630 -631 0
220 -631 0
-48 -632 0
89 -632 0
-134 -632 0
276 -633 0
632 -633 0
498 -633 0
633 -634 0
-220 -634 0
631 634 -635 0
604 -636 0
629 -636 0
635 -636 0
517 -636 0
518 -636 0
636 -637 0
113 -637 0
524 -638 0
442 -638 0
529 -638 0
605 -638 0
638 -639 0
445 -639 0
639 -640 0
129 -640 0
536 -641 0
625 -641 0
557 -641 0
641 -642 0
361 -642 0
642 -643 0
-129 -643 0
640 643 -644 0
507 -645 0
257 -645 0
159 -646 0
645 -646 0
646 -647 0
90 -647 0
595 -648 0
-90 -648 0
647 648 -649 0
649 -650 0
402 -650 0
566 -650 0
650 -651 0
27 -651 0
159 -652 0
90 -652 0
278 -653 0
653 -654 0
-90 -654 0
652 654 -655 0
655 -656 0
569 -656 0
257 -656 0
656 -657 0
-27 -657 0
651 657 -658 0
-168 -659 0
220 -659 0
580 -660 0
262 -660 0
659 -661 0
660 -661 0
661 -662 0
48 -662 0
492 -663 0
580 -663 0
663 -664 0
220 -664 0
89 -665 0
-134 -665 0
665 -666 0
498 -666 0
666 -667 0
-220 -667 0
664 667 -668 0
668 -669 0
-48 -669 0
662 669 -670 0
-161 -671 0
162 -671 0
658 -672 0
670 -672 0
671 -672 0
672 -673 0
172 -673 0
-161 -674 0
149 -674 0
675 -676 0
676 -677 0
-149 -677 0
674 677 -678 0
649 -679 0
678 -679 0
679 -680 0
402 -680 0
680 -681 0
27 -681 0
36 -682 0
-91 -682 0
149 -682 0
-161 -682 0
655 -683 0
682 -683 0
257 -683 0
683 -684 0
-27 -684 0
681 684 -685 0
659 -686 0
580 -686 0
686 -687 0
48 -687 0
580 -688 0
688 -689 0
220 -689 0
-134 -690 0
-220 -690 0
689 690 -691 0
691 -692 0
498 -692 0
692 -693 0
-48 -693 0
687 693 -694 0
685 -695 0
694 -695 0
89 -695 0
695 -696 0
265 -696 0
696 -697 0
-172 -697 0
673 697 -698 0
644 -699 0
334 -699 0
698 -699 0
-245 -699 0
699 -700 0
-113 -700 0
637 700 -701 0
701 -702 0
-147 -702 0
584 702 -703 0
704 -705 0
705 -706 0
249 -706 0
155 -707 0
-249 -707 0
706 707 -708 0
-3 -709 0
20 -709 0
-21 -709 0
-23 -709 0
25 -709 0
31 -709 0
32 -709 0
38 -709 0
51 -709 0
-52 -709 0
-58 -709 0
-60 -709 0
-69 -709 0
-77 -709 0
-80 -709 0
81 -709 0
-85 -709 0
-88 -709 0
94 -709 0
107 -709 0
120 -709 0
-121 -709 0
127 -709 0
132 -709 0
167 -709 0
189 -709 0
192 -709 0
-193 -709 0
199 -709 0
-205 -709 0
207 -709 0
223 -709 0
234 -709 0
-242 -709 0
-248 -709 0
386 -715 0
401 -715 0
710 -715 0
711 -715 0
712 -715 0
713 -715 0
714 -715 0
703 -716 0
708 -716 0
709 -716 0
715 -716 0
716 -717 0
427 717 -718 0
718 -719 0
719 -720 0
426 720 -721 0
721 -722 0
425 722 -723 0
723 -725 0
724 -725 0
725 -726 0
424 726 -727 0
171 -728 0
727 -729 0
728 -729 0
729 -730 0
423 730 -731 0
731 -732 0
733 -734 0
-106 -734 0
44 -737 0
251 -738 0
251 -739 0
251 -740 0
482 -741 0
20 -741 0
741 -742 0
132 -742 0
15 -743 0
240 -743 0
743 -744 0
404 -744 0
744 -745 0
-132 -745 0
742 745 -746 0
-106 -747 0
166 -747 0
746 -748 0
747 -748 0
381 -748 0
748 -749 0
77 -749 0
25 -750 0
-166 -750 0
750 -751 0
106 -751 0
381 -752 0
711 -752 0
752 -753 0
-106 -753 0
751 753 -754 0
20 -755 0
132 -755 0
754 -756 0
482 -756 0
755 -756 0
756 -757 0
-77 -757 0
749 757 -758 0
-119 -760 0
759 -760 0
760 -761 0
109 -761 0
193 -762 0
714 -762 0
762 -763 0
-109 -763 0
761 763 -764 0
655 -765 0
764 -765 0
765 -766 0
189 -766 0
109 -767 0
-119 -767 0
159 -767 0
759 -769 0
768 -769 0
767 -770 0
769 -770 0
770 -771 0
-189 -771 0
766 771 -772 0
-75 -773 0
-248 -773 0
758 -774 0
772 -774 0
773 -774 0
774 -776 0
775 -776 0
518 -776 0
776 -777 0
199 -777 0
166 -778 0
77 -778 0
711 -779 0
779 -780 0
-77 -780 0
778 780 -781 0
781 -782 0
482 -782 0
20 -782 0
782 -783 0
132 -783 0
15 -784 0
77 -784 0
166 -784 0
240 -784 0
784 -785 0
404 -785 0
785 -786 0
-132 -786 0
783 786 -787 0
471 -788 0
788 -789 0
248 -789 0
-75 -790 0
-248 -790 0
789 790 -791 0
791 -792 0
-119 -792 0
792 -793 0
759 -793 0
793 -794 0
109 -794 0
-75 -795 0
193 -795 0
795 -797 0
796 -797 0
797 -798 0
714 -798 0
798 -799 0
-109 -799 0
794 799 -800 0
800 -801 0
655 -801 0
801 -802 0
189 -802 0
759 -803 0
768 -803 0
791 -804 0
767 -804 0
803 -804 0
804 -805 0
-189 -805 0
802 805 -806 0
-208 -807 0
31 -807 0
518 -808 0
808 -809 0
-31 -809 0
807 809 -810 0
-25 -811 0
-106 -811 0
787 -812 0
806 -812 0
810 -812 0
811 -812 0
812 -813 0
-199 -813 0
777 813 -814 0
-48 -815 0
89 -815 0
815 -816 0
710 -816 0
816 -817 0
223 -817 0
-175 -818 0
48 -818 0
710 -819 0
819 -820 0
-48 -820 0
818 820 -821 0
821 -822 0
262 -822 0
822 -823 0
-223 -823 0
817 823 -824 0
824 -826 0
580 -826 0
825 -826 0
826 -827 0
220 -827 0
-48 -828 0
89 -828 0
-134 -828 0
710 -829 0
405 -829 0
828 -830 0
829 -830 0
830 -831 0
-220 -831 0
827 831 -832 0
-3 -833 0
21 -833 0
-23 -833 0
26 -833 0
-32 -833 0
-35 -833 0
-52 -833 0
80 -833 0
-91 -833 0
-94 -833 0
104 -833 0
107 -833 0
-111 -833 0
113 -833 0
-118 -833 0
121 -833 0
-123 -833 0
-129 -833 0
130 -833 0
142 -833 0
149 -833 0
-151 -833 0
155 -833 0
-161 -833 0
162 -833 0
168 -833 0
-171 -833 0
179 -833 0
-192 -833 0
-232 -833 0
241 -833 0
242 -833 0
-245 -833 0
-249 -833 0
401 -835 0
460 -835 0
834 -835 0
287 -835 0
451 -835 0
331 -835 0
713 -835 0
814 -836 0
832 -836 0
833 -836 0
835 -836 0
836 -837 0
86 -837 0
251 -838 0
746 -839 0
77 -839 0
482 -840 0
755 -840 0
840 -841 0
-77 -841 0
839 841 -842 0
773 -843 0
381 -843 0
775 -843 0
518 -843 0
843 -844 0
199 -844 0
791 -845 0
810 -845 0
-25 -845 0
845 -846 0
-199 -846 0
844 846 -847 0
842 -848 0
847 -848 0
-106 -848 0
848 -849 0
166 -849 0
25 -850 0
106 -850 0
381 -851 0
851 -852 0
-106 -852 0
850 852 -853 0
853 -854 0
773 -854 0
854 -855 0
775 -855 0
518 -855 0
855 -856 0
199 -856 0
791 -857 0
810 -857 0
811 -857 0
857 -858 0
-199 -858 0
856 858 -859 0
20 -860 0
-77 -860 0
132 -860 0
859 -861 0
482 -861 0
860 -861 0
861 -862 0
-166 -862 0
849 862 -863 0
655 -864 0
189 -864 0
159 -865 0
768 -865 0
865 -866 0
-189 -866 0
864 866 -867 0
863 -868 0
867 -868 0
80 -868 0
868 -869 0
294 -869 0
869 -870 0
121 -870 0
381 -871 0
871 -872 0
80 -872 0
25 -873 0
-80 -873 0
872 873 -874 0
874 -875 0
773 -875 0
875 -876 0
775 -876 0
518 -876 0
876 -877 0
199 -877 0
-25 -878 0
80 -878 0
791 -879 0
810 -879 0
878 -879 0
879 -880 0
-199 -880 0
877 880 -881 0
842 -882 0
881 -882 0
-106 -882 0
882 -883 0
166 -883 0
25 -885 0
884 -885 0
885 -886 0
106 -886 0
874 -887 0
-106 -887 0
886 887 -888 0
888 -889 0
773 -889 0
889 -890 0
775 -890 0
518 -890 0
890 -891 0
199 -891 0
-25 -892 0
80 -892 0
-106 -892 0
791 -893 0
810 -893 0
892 -893 0
893 -894 0
-199 -894 0
891 894 -895 0
895 -896 0
482 -896 0
860 -896 0
896 -897 0
-166 -897 0
883 897 -898 0
189 -899 0
-242 -899 0
898 -900 0
655 -900 0
899 -900 0
900 -901 0
-121 -901 0
870 901 -902 0
-3 -903 0
21 -903 0
-23 -903 0
26 -903 0
-32 -903 0
-35 -903 0
-52 -903 0
-91 -903 0
-94 -903 0
104 -903 0
107 -903 0
109 -903 0
-111 -903 0
113 -903 0
-118 -903 0
-119 -903 0
-123 -903 0
-129 -903 0
130 -903 0
142 -903 0
149 -903 0
-151 -903 0
155 -903 0
-161 -903 0
162 -903 0
168 -903 0
-171 -903 0
179 -903 0
-192 -903 0
-193 -903 0
-232 -903 0
241 -903 0
-245 -903 0
-249 -903 0
401 -904 0
460 -904 0
834 -904 0
287 -904 0
451 -904 0
331 -904 0
713 -904 0
902 -905 0
832 -905 0
903 -905 0
904 -905 0
905 -906 0
838 906 -907 0
907 -909 0
908 -909 0
909 -910 0
-86 -910 0
-27 -912 0
36 -912 0
40 -912 0
69 -912 0
-81 -912 0
137 -912 0
-139 -912 0
-180 -912 0
-186 -912 0
-200 -912 0
235 -912 0
911 -913 0
912 -913 0
96 -916 0
172 -916 0
916 -917 0
222 -922 0
922 -923 0
-44 -924 0
925 -926 0
251 -927 0
251 -930 0
-122 -932 0
251 -935 0
1 0
5 0
7 0
-8 0
9 0
14 0
-16 0
17 0
-19 0
-22 0
-24 0
-28 0
29 0
-30 0
-33 0
-34 0
37 0
-41 0
42 0
-43 0
-46 0
47 0
-49 0
-50 0
-53 0
54 0
-55 0
56 0
59 0
-61 0
-62 0
-64 0
-65 0
-67 0
-68 0
-70 0
-73 0
74 0
78 0
92 0
95 0
97 0
99 0
-100 0
-101 0
102 0
103 0
-105 0
-108 0
-110 0
112 0
-114 0
115 0
117 0
-124 0
-125 0
126 0
-128 0
-131 0
-138 0
-141 0
-144 0
145 0
146 0
-148 0
-150 0
153 0
154 0
-157 0
-163 0
-164 0
165 0
169 0
170 0
173 0
174 0
-177 0
178 0
-181 0
183 0
184 0
-185 0
188 0
190 0
191 0
194 0
-195 0
196 0
-198 0
201 0
203 0
204 0
209 0
210 0
212 0
213 0
215 0
-216 0
-217 0
218 0
219 0
225 0
-226 0
-227 0
-228 0
230 0
-236 0
237 0
-239 0
246 0
247 0
250 0
238 935 0
-931 932 0
-923 924 0
-922 923 0
-918 919 0
-917 918 0
-96 916 0
186 912 0
180 912 0
-40 912 0
-908 909 0
-904 905 0
-903 905 0
-902 905 0
-899 900 0
-893 894 0
-889 890 0
-887 888 0
-886 888 0
-885 886 0
-884 885 0
-879 880 0
-876 877 0
-873 874 0
-872 874 0
-870 902 0
-869 870 0
-868 869 0
-867 868 0
-863 868 0
-859 861 0
-855 856 0
-854 855 0
-852 853 0
-844 847 0
-843 844 0
38 834 0
-846 847 0
-833 836 0
171 833 903 0
32 833 903 0
-832 836 905 0
-830 831 0
-827 832 0
-824 826 0
-823 824 0
-822 823 0
-819 820 0
-818 821 0
-810 812 845 857 879 893 0
-809 810 0
-808 809 0
-807 810 0
-806 812 0
-805 806 0
-803 804 0
-801 802 0
-791 792 804 845 857 879 893 0
-789 791 0
-871 872 0
-248 789 796 0
-787 812 0
-786 787 0
-785 786 0
-784 785 0
-783 787 0
-782 783 0
-780 781 0
-772 774 0
189 771 805 866 0
-767 770 804 0
-758 774 0
-754 756 0
-752 753 0
-745 746 0
-744 745 0
-735 736 0
-734 735 0
-851 852 0
106 734 747 753 811 848 852 882 887 892 0
-732 733 0
-731 732 0
-728 729 0
-724 725 0
-821 822 0
-718 719 0
-717 718 0
-716 717 0
-714 715 762 798 0
-713 715 835 904 0
-182 713 0
-57 712 0
-847 848 0
166 711 750 862 897 0
-710 715 816 819 829 0
175 710 818 0
-749 758 0
-167 709 0
121 709 901 0
-120 709 0
88 709 0
85 709 0
80 709 873 884 0
-704 705 0
-837 911 0
-702 703 0
-700 701 0
-699 700 0
-696 697 0
-695 696 0
-694 695 0
-693 694 0
-692 693 0
192 833 903 0
-691 692 0
-690 691 0
-682 683 0
-681 685 0
-127 709 0
-680 681 0
-881 882 0
-678 679 0
-677 678 0
-676 677 0
-765 766 0
-668 669 0
119 714 760 767 792 903 0
-667 668 0
-762 763 0
-666 667 0
-763 764 0
-664 668 0
-761 764 0
-663 664 0
-768 769 803 865 0
-662 670 0
-661 662 0
-657 658 0
-656 657 0
-751 754 0
-655 656 683 765 801 864 900 0
-750 751 0
-653 654 0
-651 658 0
-647 649 0
-645 646 0
-643 644 0
-642 643 0
-641 642 0
-235 912 0
-640 644 0
-639 640 0
-800 801 0
-637 701 0
-636 637 0
-635 636 0
-634 635 0
-633 634 0
-836 837 0
-632 633 0
-631 635 0
-630 631 0
-627 628 0
-626 627 0
-625 626 641 0
-623 624 0
-622 623 0
-920 921 0
-618 619 0
-616 619 0
-615 616 0
-820 821 0
-614 623 0
-613 614 0
-86 837 0
-612 613 0
-611 612 0
-610 625 0
-609 610 0
-607 608 0
-605 606 638 0
-598 599 0
-597 601 0
-595 596 648 0
-591 604 0
-590 591 0
-589 590 0
-587 588 0
-586 588 0
-913 914 0
-705 706 0
-585 586 0
-134 580 0
-579 581 0
-909 910 0
-584 703 0
-578 581 0
-576 577 0
-575 576 0
-193 759 762 795 0
-570 571 0
-568 572 0
-567 568 0
-566 567 650 0
-161 565 675 0
-564 565 0
-563 564 0
-892 893 0
-561 576 0
-559 560 0
-558 559 0
-557 558 641 0
-556 557 0
-554 555 0
-553 555 0
-552 553 0
-550 553 0
63 930 0
-549 557 0
-535 536 0
-857 858 0
-528 529 0
-755 756 840 0
-527 528 0
-526 527 0
-525 529 0
-523 524 0
-521 524 0
-151 521 534 0
-741 742 0
-519 520 0
-518 519 551 636 776 808 843 855 876 890 0
27 515 571 587 600 657 684 912 0
-513 514 587 599 0
-512 516 0
-841 842 0
-509 510 0
-231 926 0
-840 841 0
-508 509 0
-507 508 585 592 645 0
-839 842 0
-506 510 0
91 506 507 513 569 682 833 903 0
-505 519 573 630 0
-502 503 0
-501 502 564 0
-499 500 0
-497 501 0
-496 505 0
-726 727 0
-492 493 663 0
-723 725 0
-490 491 0
-106 751 850 886 0
-323 349 0
-856 859 0
229 400 0
-766 772 0
214 398 0
-147 584 0
-284 286 0
-802 806 0
-583 584 0
-577 578 0
-511 512 0
3 285 308 709 833 903 0
-408 409 0
-757 758 0
-620 621 0
-709 716 0
-534 536 0
-711 715 752 779 0
-644 699 0
2 400 0
-398 399 0
-888 889 0
-189 400 709 766 802 864 899 0
-397 399 0
-394 408 0
133 400 0
-619 621 0
-289 291 0
-187 400 0
-391 392 0
-915 917 0
-389 408 0
-933 934 0
-3 284 306 0
206 388 0
-604 636 0
-385 389 0
-725 726 0
-489 492 0
-386 387 715 0
-874 875 887 0
-222 385 386 922 0
129 485 560 628 643 833 903 0
222 386 0
208 518 528 807 0
-381 382 748 752 843 851 871 0
-484 485 0
-882 883 0
-38 400 709 834 0
-121 420 833 870 0
-25 381 709 750 850 873 885 0
-562 564 0
-379 380 0
-814 836 0
-378 380 0
211 390 0
-119 400 714 0
-674 678 0
-36 402 513 569 682 912 0
-377 378 0
-339 340 0
-877 881 0
-588 590 0
-374 375 0
-719 720 0
-208 400 518 525 0
-373 374 0
-372 373 0
-371 375 0
-370 371 0
-880 881 0
-35 400 450 614 0
-118 458 611 616 0
243 383 0
-369 376 0
-392 394 0
-736 737 0
-292 296 360 0
-813 814 0
-362 363 0
-51 709 0
-337 339 0
-176 302 0
-911 913 0
-361 362 373 484 559 627 642 0
172 267 275 379 504 562 697 0
-123 361 0
-795 797 0
-673 698 0
-355 356 0
-792 793 0
-354 355 0
-351 352 0
-600 601 0
-350 384 0
-764 765 0
-771 772 0
123 348 361 370 443 605 833 903 0
155 346 374 704 0
-685 695 0
-453 454 0
-345 346 0
-452 453 0
-415 417 0
-155 343 371 704 707 833 903 0
-342 343 370 0
-274 275 0
-207 709 0
-363 378 0
-660 661 0
25 348 381 811 845 878 892 0
-75 443 464 471 549 605 0
-336 337 0
-624 625 0
-94 392 709 0
-652 655 0
-335 336 0
132 745 786 0
-684 685 0
-450 454 0
-334 340 576 590 699 0
-715 716 0
-332 333 0
-778 781 0
-599 600 0
-382 383 0
-388 389 0
-483 484 0
-330 334 0
-13 330 331 428 430 0
-262 263 487 490 660 822 0
-329 342 0
-27 400 512 562 568 586 597 651 681 0
-537 538 0
-245 329 344 431 0
-650 651 0
23 282 304 709 833 903 0
-797 798 0
-356 357 0
-921 923 0
-149 517 566 569 674 682 833 903 0
-396 397 0
-900 901 0
-10 254 423 0
-533 534 0
-23 282 285 301 307 0
-317 318 0
72 400 0
-897 898 0
-457 458 0
-314 315 0
-601 602 0
-383 384 0
118 400 443 462 605 609 618 833 903 0
35 443 453 459 605 609 622 833 903 0
-906 907 0
-701 702 0
-520 578 0
-367 368 0
-158 253 740 0
-275 276 0
-901 902 0
-794 800 0
-698 699 0
-565 575 0
-400 408 0
-358 360 364 0
-260 261 0
-288 289 0
-261 269 351 353 0
81 322 377 912 0
-276 279 633 0
-162 263 265 273 495 671 833 903 0
-621 622 0
-90 591 647 652 768 0
-290 291 0
-18 255 425 838 0
-300 312 0
-919 920 0
-393 394 0
-399 408 0
-220 272 316 351 353 579 631 659 664 689 827 0
-683 684 0
162 265 0
-494 495 0
-390 391 0
-747 748 0
-516 519 0
-325 326 345 372 0
-816 817 0
-720 721 0
-256 258 274 283 288 303 332 336 387 391 396 432 468 472 480 490 499 508 522 527 537 585 592 615 653 676 688 705 752 779 788 808 819 851 871 0
-860 861 896 0
-743 744 0
107 311 316 0
-89 262 266 277 379 489 502 562 632 665 695 815 828 0
159 260 278 579 594 0
-934 936 0
-306 309 0
-234 709 0
-322 323 0
-606 607 0
-272 281 0
-249 327 344 706 0
-285 286 0
-341 342 0
-273 276 0
-746 748 839 0
48 270 277 357 493 500 632 669 693 815 820 828 0
-278 279 354 598 653 0
-139 400 443 466 538 543 605 0
-338 339 0
242 294 709 899 0
83 400 0
13 324 331 344 433 0
-793 794 0
-572 573 0
-352 358 0
-258 259 0
-286 296 298 360 0
151 400 517 523 535 833 903 0
-348 349 0
-280 281 0
94 393 833 903 0
-416 417 0
-593 595 0
-376 377 0
-76 400 443 451 459 605 609 617 0
-646 647 0
168 400 487 491 497 498 659 0
89 262 0
-798 799 0
-697 698 0
-573 574 0
-357 358 0
-321 322 0
-259 261 0
-853 854 0
-932 933 0
-498 499 633 666 692 0
-305 306 0
66 400 0
-648 649 0
-48 270 352 488 497 662 687 818 0
-263 264 0
-582 583 613 0
-291 296 360 0
-770 771 0
-670 672 0
60 287 290 709 0
-172 264 273 496 673 916 0
-277 279 0
79 400 0
-733 734 0
-395 396 446 480 522 607 0
-491 492 0
-304 305 0
179 257 260 277 354 509 0
-87 400 0
-298 299 0
-891 895 0
-179 257 316 506 833 903 0
-264 268 0
-905 906 0
-364 365 0
-69 289 321 376 912 0
-894 895 0
-686 687 0
-343 347 0
-454 455 0
-560 561 0
-815 816 0
-849 863 0
113 335 577 700 0
15 395 398 521 533 0
-257 258 514 570 590 592 598 645 656 683 0
-712 715 0
-440 441 0
-333 334 0
-776 777 0
-77 292 313 749 778 784 839 0
-469 470 0
-848 849 0
-671 672 0
-331 332 835 904 0
-107 292 300 709 833 903 0
-365 369 0
199 400 813 846 858 880 894 0
-628 629 0
-309 310 318 367 0
-142 293 440 476 539 544 554 833 903 0
-283 284 0
-295 296 0
-603 604 0
-387 388 0
-271 272 0
142 293 0
-708 716 0
-479 482 0
-281 296 314 0
-878 879 0
-675 676 0
182 400 713 0
-60 287 0
26 400 437 439 467 541 0
-293 295 314 317 359 364 366 437 537 0
-366 367 0
-294 295 299 359 869 0
-296 297 0
-232 526 0
-318 319 0
-4 400 0
-895 896 0
-790 791 0
-31 709 775 807 0
136 400 0
-297 323 0
-465 466 0
-159 259 278 316 589 593 646 652 767 865 0
-299 300 0
-269 271 0
-301 305 0
-267 268 0
-82 400 443 460 605 610 0
-20 404 709 741 755 782 860 0
-420 421 0
-52 325 337 0
77 316 709 757 780 841 860 0
-268 269 318 0
-21 292 315 365 833 903 0
104 448 0
-303 304 0
-774 776 0
245 341 428 430 431 576 589 699 833 903 0
-858 859 0
-111 330 429 0
-307 308 0
-279 280 0
-594 595 0
21 319 368 709 0
197 400 0
-629 636 0
-310 311 0
-349 350 0
-659 661 686 0
-834 835 904 0
-311 312 0
-842 848 882 0
-319 320 0
-411 412 0
-907 909 0
-71 422 738 0
-835 836 0
-312 314 364 0
-775 776 843 855 876 890 0
205 709 0
-266 267 0
-241 400 443 456 459 605 609 617 833 903 0
-313 314 364 0
-315 320 0
-914 915 0
-84 413 424 739 0
220 280 355 634 667 690 831 0
231 927 0
-316 318 367 0
-458 463 0
-796 797 0
-571 572 0
-353 356 0
-320 321 0
-916 917 0
-654 655 0
111 324 333 344 435 833 903 0
-687 694 0
-137 582 605 609 620 912 0
31 400 775 809 0
-15 395 479 743 784 0
-113 324 335 338 344 520 637 833 903 0
-875 876 0
-551 552 0
-759 760 769 793 803 0
116 400 0
-380 382 0
-706 708 0
-478 483 626 0
-368 369 0
-753 754 0
-530 531 0
-242 294 310 316 833 0
-324 326 0
-748 749 0
-171 416 728 0
-850 853 0
45 400 0
-326 328 0
-308 309 0
-864 867 0
-539 540 0
-428 429 0
-602 603 0
-384 408 0
-270 271 317 366 0
-81 297 363 709 0
-910 911 0
-703 716 0
-477 478 0
-861 862 0
-580 581 630 660 663 686 688 826 0
-328 329 0
-862 863 0
52 325 338 709 833 903 0
-327 328 0
-536 558 641 0
200 912 0
-473 475 0
-760 761 0
-665 666 0
-707 708 0
-480 481 0
-679 680 0
-504 505 0
-160 400 0
-799 800 0
-574 575 0
-360 362 0
-166 400 711 747 778 784 849 883 0
-375 376 0
75 400 471 474 556 773 790 795 0
-168 489 498 833 903 0
90 400 579 603 648 654 768 0
-541 542 0
-432 433 0
-91 400 507 0
-929 931 0
-302 303 0
-93 400 0
-828 830 0
-503 504 0
98 400 0
-896 897 0
-845 846 0
-104 400 443 448 452 459 605 609 620 833 903 0
-812 813 0
-265 266 274 380 503 563 696 0
20 404 0
-12 400 0
-658 672 0
-6 427 0
-672 673 0
-403 407 0
-58 825 0
-545 546 0
-434 435 0
-344 345 372 0
-926 928 0
-221 400 0
-532 561 0
-129 400 447 532 608 640 0
-132 400 709 742 755 783 860 0
-404 407 744 785 0
-542 547 0
249 327 340 707 833 903 0
-429 436 0
134 400 580 632 665 690 828 0
-135 400 0
-32 400 709 0
137 400 582 0
-447 486 0
-804 805 0
-474 475 0
143 400 0
-730 731 0
-495 496 0
-617 618 0
-287 288 321 376 835 904 0
149 400 562 566 677 0
152 400 0
-817 824 0
-402 407 511 563 567 585 596 650 680 0
-825 826 0
156 400 0
-912 913 0
-826 827 0
-514 515 0
-517 519 636 0
-175 400 710 0
82 455 460 624 0
-781 782 0
-451 452 615 835 904 0
-788 789 0
-359 360 0
-192 400 709 0
-883 898 0
-569 570 656 0
193 400 709 759 903 0
-510 511 564 567 594 0
-472 473 0
-811 812 857 0
36 402 0
-282 283 0
-638 639 0
-233 400 0
-773 774 843 854 875 889 0
-515 516 0
-522 523 0
240 400 445 481 533 0
-475 476 0
-756 757 0
244 400 0
-481 482 0
248 400 709 773 790 796 0
-829 830 0
-224 401 0
224 401 0
-546 547 0
-435 436 0
-199 709 777 844 856 877 891 0
-476 477 0
202 400 0
11 403 0
-223 405 709 817 0
223 405 823 0
-63 929 0
-438 442 0
-524 530 638 0
-109 406 443 464 473 548 550 605 761 767 794 903 0
109 406 474 552 763 799 0
-406 407 0
-547 548 0
-436 519 602 0
-555 556 0
-407 408 0
-649 650 679 0
-409 410 0
-422 733 0
-410 412 0
-405 407 829 0
-412 413 0
-413 415 0
-729 730 0
-493 494 0
-130 416 438 467 542 833 903 0
-500 501 0
-608 629 0
-417 418 0
-418 419 0
-831 832 0
-419 421 0
-865 866 0
-538 540 0
-462 463 0
-742 746 0
-340 341 0
-421 422 0
-486 519 0
-727 729 0
-488 494 0
-596 597 0
-140 426 0
-721 722 0
-80 400 833 868 872 878 884 892 0
-485 486 0
-543 544 0
-430 434 0
-866 867 0
-540 541 0
-431 432 0
-544 545 0
-433 434 0
-769 770 0
-669 670 0
-437 438 0
-26 439 833 903 0
-439 440 468 545 0
130 441 469 546 0
-779 780 0
-441 442 0
-442 444 465 530 606 638 0
-548 549 0
-443 444 530 0
-444 446 0
-240 445 479 743 784 0
-445 446 531 607 639 0
-446 447 0
-448 449 613 0
-531 532 0
-39 400 0
-449 450 0
-688 689 0
-346 347 0
-455 457 0
-529 530 548 550 638 0
241 456 0
-456 457 612 615 0
-890 891 0
-459 461 0
-689 691 0
-347 349 360 0
-460 461 835 904 0
-461 462 0
-898 900 0
-463 483 558 0
-464 465 0
-581 583 0
-466 478 0
-467 470 0
-468 469 0
-470 476 555 0
69 290 709 0
-471 472 788 0
139 477 539 543 554 912 0
-777 814 0
-592 593 0
76 449 451 611 0
-482 483 535 626 741 756 782 840 861 896 0
-722 723 0
-487 488 0
